NAME: random-67-23082
TYPE: TSP
COMMENT: size=67 seed=23082
DIMENSION: 136
EDGE_WEIGHT_TYPE: EUC_2D
NODE_COORD_SECTION
+0 174 126
-0 174 126
+1 101 366
-1 613 153
+2 373 760
-2 483 647
+3 884 785
-3 536 24
+4 137 259
-4 930 510
+5 354 614
-5 820 902
+6 363 692
-6 184 625
+7 418 422
-7 190 61
+8 105 429
-8 890 234
+9 784 245
-9 353 818
+10 100 791
-10 266 516
+11 184 71
-11 83 722
+12 690 43
-12 358 77
+13 320 193
-13 852 759
+14 5 879
-14 518 187
+15 197 297
-15 719 107
+16 551 499
-16 593 638
+17 924 312
-17 57 140
+18 505 542
-18 61 908
+19 973 20
-19 531 139
+20 201 937
-20 776 252
+21 514 433
-21 139 407
+22 339 466
-22 262 796
+23 416 315
-23 996 90
+24 95 953
-24 164 372
+25 988 954
-25 459 844
+26 678 838
-26 427 540
+27 716 393
-27 941 958
+28 490 30
-28 36 991
+29 155 948
-29 464 314
+30 620 988
-30 65 42
+31 250 928
-31 10 21
+32 267 21
-32 213 580
+33 634 142
-33 359 319
+34 845 349
-34 231 383
+35 240 498
-35 624 581
+36 200 335
-36 849 92
+37 577 567
-37 334 635
+38 667 488
-38 132 258
+39 870 616
-39 54 540
+40 246 80
-40 724 63
+41 378 344
-41 972 342
+42 769 698
-42 416 334
+43 597 795
-43 128 876
+44 973 692
-44 914 331
+45 221 761
-45 520 110
+46 727 274
-46 830 157
+47 955 550
-47 389 710
+48 144 140
-48 688 945
+49 971 114
-49 98 819
+50 767 614
-50 181 709
+51 841 811
-51 874 228
+52 469 822
-52 129 750
+53 718 152
-53 876 156
+54 402 638
-54 762 570
+55 673 477
-55 572 544
+56 745 603
-56 751 421
+57 510 103
-57 562 599
+58 623 524
-58 992 806
+59 196 365
-59 137 345
+60 898 907
-60 333 999
+61 50 510
-61 965 241
+62 274 920
-62 797 376
+63 306 918
-63 933 891
+64 455 866
-64 703 166
+65 497 734
-65 984 518
+66 980 729
-66 836 257
+67 897 512
-67 875 513
PRECEDENCE_SECTION
+0 -0
+1 -1
+2 -2
+3 -3
+4 -4
+5 -5
+6 -6
+7 -7
+8 -8
+9 -9
+10 -10
+11 -11
+12 -12
+13 -13
+14 -14
+15 -15
+16 -16
+17 -17
+18 -18
+19 -19
+20 -20
+21 -21
+22 -22
+23 -23
+24 -24
+25 -25
+26 -26
+27 -27
+28 -28
+29 -29
+30 -30
+31 -31
+32 -32
+33 -33
+34 -34
+35 -35
+36 -36
+37 -37
+38 -38
+39 -39
+40 -40
+41 -41
+42 -42
+43 -43
+44 -44
+45 -45
+46 -46
+47 -47
+48 -48
+49 -49
+50 -50
+51 -51
+52 -52
+53 -53
+54 -54
+55 -55
+56 -56
+57 -57
+58 -58
+59 -59
+60 -60
+61 -61
+62 -62
+63 -63
+64 -64
+65 -65
+66 -66
+67 -67
EOF
